c colouring generated by benchmark framework
p edge 1000 449449
v 1 203
v 2 321
v 3 93
v 4 316
v 5 14
v 6 226
v 7 160
v 8 115
v 9 139
v 10 4
v 11 243
v 12 58
v 13 144
v 14 215
v 15 15
v 16 222
v 17 107
v 18 113
v 19 221
v 20 214
v 21 83
v 22 54
v 23 174
v 24 2
v 25 13
v 26 70
v 27 66
v 28 200
v 29 100
v 30 293
v 31 97
v 32 161
v 33 336
v 34 284
v 35 125
v 36 25
v 37 122
v 38 341
v 39 250
v 40 297
v 41 161
v 42 254
v 43 327
v 44 63
v 45 247
v 46 213
v 47 74
v 48 219
v 49 169
v 50 263
v 51 244
v 52 306
v 53 212
v 54 162
v 55 292
v 56 129
v 57 133
v 58 232
v 59 27
v 60 211
v 61 107
v 62 134
v 63 149
v 64 93
v 65 179
v 66 246
v 67 207
v 68 210
v 69 290
v 70 26
v 71 231
v 72 146
v 73 181
v 74 70
v 75 190
v 76 301
v 77 59
v 78 180
v 79 209
v 80 194
v 81 265
v 82 212
v 83 170
v 84 45
v 85 30
v 86 11
v 87 144
v 88 27
v 89 234
v 90 110
v 91 258
v 92 199
v 93 108
v 94 249
v 95 14
v 96 210
v 97 257
v 98 308
v 99 133
v 100 287
v 101 124
v 102 303
v 103 108
v 104 103
v 105 37
v 106 242
v 107 168
v 108 204
v 109 122
v 110 281
v 111 10
v 112 72
v 113 174
v 114 7
v 115 115
v 116 75
v 117 83
v 118 163
v 119 323
v 120 45
v 121 96
v 122 193
v 123 119
v 124 53
v 125 224
v 126 152
v 127 75
v 128 5
v 129 99
v 130 105
v 131 126
v 132 232
v 133 328
v 134 46
v 135 60
v 136 138
v 137 47
v 138 0
v 139 332
v 140 107
v 141 113
v 142 271
v 143 154
v 144 302
v 145 114
v 146 109
v 147 7
v 148 117
v 149 139
v 150 221
v 151 68
v 152 237
v 153 79
v 154 122
v 155 109
v 156 291
v 157 123
v 158 81
v 159 3
v 160 85
v 161 61
v 162 273
v 163 203
v 164 298
v 165 193
v 166 16
v 167 67
v 168 276
v 169 136
v 170 247
v 171 289
v 172 253
v 173 196
v 174 63
v 175 319
v 176 43
v 177 9
v 178 197
v 179 201
v 180 34
v 181 191
v 182 338
v 183 29
v 184 163
v 185 278
v 186 106
v 187 149
v 188 226
v 189 282
v 190 39
v 191 51
v 192 189
v 193 199
v 194 278
v 195 183
v 196 294
v 197 55
v 198 302
v 199 218
v 200 164
v 201 208
v 202 112
v 203 100
v 204 165
v 205 204
v 206 89
v 207 86
v 208 89
v 209 177
v 210 241
v 211 286
v 212 233
v 213 179
v 214 183
v 215 194
v 216 159
v 217 186
v 218 20
v 219 155
v 220 87
v 221 82
v 222 198
v 223 283
v 224 78
v 225 204
v 226 81
v 227 260
v 228 202
v 229 25
v 230 53
v 231 249
v 232 197
v 233 245
v 234 131
v 235 45
v 236 270
v 237 253
v 238 268
v 239 227
v 240 331
v 241 223
v 242 58
v 243 270
v 244 299
v 245 228
v 246 299
v 247 229
v 248 58
v 249 169
v 250 102
v 251 209
v 252 102
v 253 339
v 254 4
v 255 211
v 256 272
v 257 254
v 258 216
v 259 239
v 260 47
v 261 62
v 262 144
v 263 277
v 264 24
v 265 50
v 266 36
v 267 261
v 268 56
v 269 152
v 270 211
v 271 192
v 272 2
v 273 36
v 274 235
v 275 149
v 276 142
v 277 292
v 278 95
v 279 171
v 280 30
v 281 6
v 282 80
v 283 313
v 284 181
v 285 267
v 286 182
v 287 205
v 288 193
v 289 19
v 290 71
v 291 65
v 292 94
v 293 335
v 294 271
v 295 46
v 296 3
v 297 251
v 298 307
v 299 289
v 300 171
v 301 49
v 302 291
v 303 18
v 304 96
v 305 252
v 306 325
v 307 188
v 308 285
v 309 151
v 310 71
v 311 70
v 312 135
v 313 219
v 314 288
v 315 192
v 316 326
v 317 31
v 318 217
v 319 59
v 320 156
v 321 221
v 322 259
v 323 185
v 324 132
v 325 7
v 326 76
v 327 244
v 328 4
v 329 150
v 330 101
v 331 260
v 332 27
v 333 64
v 334 238
v 335 7
v 336 334
v 337 198
v 338 24
v 339 14
v 340 120
v 341 175
v 342 174
v 343 101
v 344 250
v 345 292
v 346 108
v 347 264
v 348 7
v 349 174
v 350 123
v 351 296
v 352 132
v 353 279
v 354 218
v 355 182
v 356 109
v 357 288
v 358 62
v 359 275
v 360 66
v 361 169
v 362 48
v 363 86
v 364 94
v 365 190
v 366 256
v 367 115
v 368 305
v 369 37
v 370 134
v 371 181
v 372 148
v 373 153
v 374 193
v 375 172
v 376 156
v 377 246
v 378 88
v 379 258
v 380 104
v 381 90
v 382 131
v 383 56
v 384 44
v 385 314
v 386 46
v 387 277
v 388 35
v 389 68
v 390 103
v 391 152
v 392 241
v 393 110
v 394 243
v 395 91
v 396 38
v 397 230
v 398 1
v 399 186
v 400 12
v 401 41
v 402 113
v 403 61
v 404 91
v 405 180
v 406 28
v 407 257
v 408 116
v 409 170
v 410 264
v 411 14
v 412 59
v 413 1
v 414 22
v 415 19
v 416 98
v 417 136
v 418 84
v 419 52
v 420 15
v 421 270
v 422 228
v 423 178
v 424 344
v 425 285
v 426 239
v 427 82
v 428 69
v 429 260
v 430 117
v 431 65
v 432 97
v 433 272
v 434 76
v 435 83
v 436 189
v 437 58
v 438 3
v 439 96
v 440 116
v 441 97
v 442 54
v 443 126
v 444 242
v 445 153
v 446 31
v 447 90
v 448 137
v 449 283
v 450 50
v 451 304
v 452 128
v 453 93
v 454 87
v 455 74
v 456 57
v 457 216
v 458 168
v 459 256
v 460 342
v 461 315
v 462 156
v 463 341
v 464 135
v 465 309
v 466 48
v 467 125
v 468 33
v 469 311
v 470 6
v 471 141
v 472 141
v 473 323
v 474 208
v 475 69
v 476 240
v 477 248
v 478 85
v 479 118
v 480 279
v 481 241
v 482 110
v 483 203
v 484 171
v 485 266
v 486 167
v 487 40
v 488 22
v 489 56
v 490 337
v 491 35
v 492 88
v 493 224
v 494 54
v 495 137
v 496 87
v 497 114
v 498 62
v 499 138
v 500 21
v 501 73
v 502 42
v 503 197
v 504 34
v 505 119
v 506 226
v 507 21
v 508 231
v 509 155
v 510 75
v 511 150
v 512 77
v 513 53
v 514 123
v 515 124
v 516 329
v 517 137
v 518 178
v 519 130
v 520 178
v 521 41
v 522 100
v 523 179
v 524 150
v 525 283
v 526 276
v 527 43
v 528 31
v 529 195
v 530 298
v 531 324
v 532 171
v 533 52
v 534 154
v 535 135
v 536 141
v 537 265
v 538 210
v 539 76
v 540 293
v 541 230
v 542 61
v 543 252
v 544 57
v 545 92
v 546 136
v 547 288
v 548 170
v 549 224
v 550 89
v 551 191
v 552 52
v 553 201
v 554 245
v 555 33
v 556 25
v 557 247
v 558 3
v 559 73
v 560 207
v 561 299
v 562 121
v 563 146
v 564 220
v 565 161
v 566 202
v 567 205
v 568 308
v 569 284
v 570 344
v 571 229
v 572 79
v 573 333
v 574 173
v 575 157
v 576 99
v 577 140
v 578 195
v 579 47
v 580 273
v 581 275
v 582 32
v 583 118
v 584 192
v 585 166
v 586 167
v 587 132
v 588 82
v 589 219
v 590 81
v 591 257
v 592 233
v 593 184
v 594 269
v 595 46
v 596 183
v 597 147
v 598 159
v 599 175
v 600 23
v 601 63
v 602 225
v 603 160
v 604 305
v 605 334
v 606 51
v 607 281
v 608 295
v 609 10
v 610 100
v 611 6
v 612 136
v 613 124
v 614 206
v 615 130
v 616 162
v 617 13
v 618 185
v 619 105
v 620 190
v 621 320
v 622 304
v 623 55
v 624 212
v 625 17
v 626 9
v 627 67
v 628 126
v 629 29
v 630 130
v 631 217
v 632 200
v 633 145
v 634 172
v 635 222
v 636 45
v 637 311
v 638 49
v 639 8
v 640 68
v 641 121
v 642 151
v 643 196
v 644 78
v 645 183
v 646 145
v 647 99
v 648 227
v 649 148
v 650 120
v 651 107
v 652 290
v 653 40
v 654 300
v 655 194
v 656 44
v 657 266
v 658 163
v 659 74
v 660 246
v 661 343
v 662 274
v 663 48
v 664 200
v 665 29
v 666 273
v 667 98
v 668 255
v 669 312
v 670 127
v 671 92
v 672 113
v 673 261
v 674 57
v 675 319
v 676 109
v 677 50
v 678 297
v 679 310
v 680 312
v 681 60
v 682 158
v 683 142
v 684 55
v 685 1
v 686 142
v 687 159
v 688 213
v 689 146
v 690 266
v 691 63
v 692 162
v 693 22
v 694 141
v 695 84
v 696 259
v 697 329
v 698 176
v 699 94
v 700 0
v 701 28
v 702 216
v 703 38
v 704 172
v 705 213
v 706 60
v 707 98
v 708 37
v 709 157
v 710 153
v 711 306
v 712 196
v 713 184
v 714 11
v 715 274
v 716 248
v 717 118
v 718 123
v 719 297
v 720 54
v 721 280
v 722 176
v 723 64
v 724 322
v 725 5
v 726 129
v 727 99
v 728 310
v 729 167
v 730 187
v 731 214
v 732 65
v 733 98
v 734 237
v 735 205
v 736 92
v 737 230
v 738 67
v 739 32
v 740 177
v 741 17
v 742 88
v 743 51
v 744 121
v 745 154
v 746 194
v 747 282
v 748 101
v 749 78
v 750 272
v 751 233
v 752 212
v 753 34
v 754 129
v 755 18
v 756 143
v 757 181
v 758 26
v 759 105
v 760 91
v 761 235
v 762 93
v 763 33
v 764 155
v 765 250
v 766 207
v 767 267
v 768 10
v 769 238
v 770 133
v 771 268
v 772 5
v 773 87
v 774 111
v 775 9
v 776 112
v 777 294
v 778 147
v 779 198
v 780 23
v 781 190
v 782 337
v 783 40
v 784 185
v 785 164
v 786 64
v 787 309
v 788 214
v 789 331
v 790 317
v 791 4
v 792 175
v 793 44
v 794 80
v 795 255
v 796 71
v 797 106
v 798 102
v 799 296
v 800 30
v 801 106
v 802 247
v 803 151
v 804 202
v 805 234
v 806 79
v 807 148
v 808 303
v 809 261
v 810 143
v 811 243
v 812 230
v 813 69
v 814 200
v 815 32
v 816 39
v 817 19
v 818 11
v 819 216
v 820 195
v 821 143
v 822 235
v 823 321
v 824 239
v 825 225
v 826 152
v 827 22
v 828 158
v 829 168
v 830 20
v 831 134
v 832 128
v 833 166
v 834 2
v 835 38
v 836 286
v 837 11
v 838 188
v 839 90
v 840 150
v 841 116
v 842 223
v 843 19
v 844 15
v 845 75
v 846 162
v 847 42
v 848 215
v 849 73
v 850 173
v 851 220
v 852 20
v 853 245
v 854 278
v 855 86
v 856 114
v 857 13
v 858 229
v 859 31
v 860 190
v 861 269
v 862 38
v 863 277
v 864 28
v 865 77
v 866 0
v 867 267
v 868 65
v 869 236
v 870 34
v 871 26
v 872 191
v 873 18
v 874 340
v 875 300
v 876 96
v 877 228
v 878 72
v 879 231
v 880 222
v 881 103
v 882 95
v 883 317
v 884 280
v 885 116
v 886 25
v 887 295
v 888 32
v 889 184
v 890 145
v 891 36
v 892 111
v 893 125
v 894 104
v 895 16
v 896 187
v 897 1
v 898 28
v 899 132
v 900 237
v 901 206
v 902 262
v 903 313
v 904 117
v 905 227
v 906 80
v 907 236
v 908 300
v 909 131
v 910 104
v 911 271
v 912 252
v 913 128
v 914 315
v 915 85
v 916 287
v 917 17
v 918 182
v 919 42
v 920 44
v 921 62
v 922 237
v 923 12
v 924 166
v 925 211
v 926 238
v 927 139
v 928 318
v 929 251
v 930 70
v 931 127
v 932 225
v 933 177
v 934 12
v 935 240
v 936 330
v 937 138
v 938 251
v 939 332
v 940 140
v 941 43
v 942 206
v 943 208
v 944 66
v 945 83
v 946 199
v 947 147
v 948 6
v 949 21
v 950 111
v 951 41
v 952 23
v 953 16
v 954 264
v 955 112
v 956 255
v 957 117
v 958 42
v 959 198
v 960 49
v 961 202
v 962 39
v 963 262
v 964 173
v 965 180
v 966 24
v 967 160
v 968 165
v 969 79
v 970 158
v 971 191
v 972 301
v 973 95
v 974 165
v 975 119
v 976 72
v 977 120
v 978 140
v 979 322
v 980 199
v 981 234
v 982 86
v 983 236
v 984 155
v 985 84
v 986 316
v 987 53
v 988 8
v 989 156
v 990 188
v 991 4
v 992 51
v 993 164
v 994 220
v 995 176
v 996 215
v 997 77
v 998 263
v 999 35
v 1000 8
